# Objective value = 1.5209269999999993e+04
I_0_0 1251
I_0_1 1.4050000000000014e+03
I_0_2 1.3760000000000014e+03
I_0_3 1.2610000000000161e+03
I_0_4 1.3940000000000023e+03
I_0_5 1.4800000000000020e+03
I_0_6 1.9910000000000020e+03
I_1_0 51
I_1_1 51
I_1_2 0
I_1_3 51
I_1_4 51
I_1_5 51
I_1_6 0
I_2_0 78
I_2_1 78
I_2_2 78
I_2_3 78
I_2_4 78
I_2_5 78
I_2_6 0
I_3_0 12
I_3_1 12
I_3_2 0
I_3_3 12
I_3_4 0
I_3_5 1.1999999999999991e+01
I_3_6 0
I_4_0 10
I_4_1 0
I_4_2 10
I_4_3 0
I_4_4 10.0000000000017
I_4_5 10
I_4_6 0
I_5_0 150
I_5_1 75
I_5_2 150
I_5_3 1.4999999999999483e+02
I_5_4 1.4999999999999997e+02
I_5_5 7.4999999999999972e+01
I_5_6 0
I_6_0 69
I_6_1 0
I_6_2 69
I_6_3 6.8999999999991431e+01
I_6_4 0
I_6_5 69
I_6_6 0
I_7_0 19
I_7_1 1.8999999999998703e+01
I_7_2 5.1336712658667238e-12
I_7_3 1.9000000000001450e+01
I_7_4 -1.7679494292079821e-12
I_7_5 1.8999999999998202e+01
I_7_6 0
I_8_0 110
I_8_1 110
I_8_2 1.0999999999999741e+02
I_8_3 110
I_8_4 1.0999999999999999e+02
I_8_5 5.5000000000001783e+01
I_8_6 0
I_9_0 198
I_9_1 198
I_9_2 198
I_9_3 198
I_9_4 198
I_9_5 99
I_9_6 0
I_10_0 43
I_10_1 43
I_10_2 -3.8422668992012842e-12
I_10_3 4.2999999999996156e+01
I_10_4 0
I_10_5 43
I_10_6 0
q_1_0_0 51
q_1_0_1 0
q_1_0_2 102
q_1_0_3 51
q_1_0_4 51
q_1_0_5 0
q_1_1_0 0
q_1_1_1 0
q_1_1_2 0
q_1_1_3 0
q_1_1_4 0
q_1_1_5 0
q_1_2_0 0
q_1_2_1 0
q_1_2_2 0
q_1_2_3 0
q_1_2_4 0
q_1_2_5 0
q_1_3_0 0
q_1_3_1 0
q_1_3_2 0
q_1_3_3 0
q_1_3_4 0
q_1_3_5 0
q_1_4_0 0
q_1_4_1 0
q_1_4_2 0
q_1_4_3 0
q_1_4_4 0
q_1_4_5 0
q_2_0_0 0
q_2_0_1 78
q_2_0_2 0
q_2_0_3 0
q_2_0_4 78
q_2_0_5 0
q_2_1_0 0
q_2_1_1 0
q_2_1_2 78
q_2_1_3 0
q_2_1_4 0
q_2_1_5 0
q_2_2_0 78
q_2_2_1 0
q_2_2_2 0
q_2_2_3 78
q_2_2_4 0
q_2_2_5 0
q_2_3_0 0
q_2_3_1 0
q_2_3_2 0
q_2_3_3 0
q_2_3_4 0
q_2_3_5 0
q_2_4_0 0
q_2_4_1 0
q_2_4_2 0
q_2_4_3 0
q_2_4_4 0
q_2_4_5 0
q_3_0_0 12
q_3_0_1 0
q_3_0_2 24
q_3_0_3 0
q_3_0_4 0
q_3_0_5 0
q_3_1_0 0
q_3_1_1 0
q_3_1_2 0
q_3_1_3 0
q_3_1_4 2.3999999999999993e+01
q_3_1_5 0
q_3_2_0 0
q_3_2_1 0
q_3_2_2 0
q_3_2_3 0
q_3_2_4 0
q_3_2_5 0
q_3_3_0 0
q_3_3_1 0
q_3_3_2 0
q_3_3_3 0
q_3_3_4 0
q_3_3_5 0
q_3_4_0 0
q_3_4_1 0
q_3_4_2 0
q_3_4_3 0
q_3_4_4 0
q_3_4_5 0
q_4_0_0 0
q_4_0_1 20
q_4_0_2 0
q_4_0_3 0
q_4_0_4 9.9999999999983
q_4_0_5 0
q_4_1_0 0
q_4_1_1 0
q_4_1_2 0
q_4_1_3 1.7000595540206912e-12
q_4_1_4 0
q_4_1_5 0
q_4_2_0 0
q_4_2_1 0
q_4_2_2 0
q_4_2_3 20
q_4_2_4 0
q_4_2_5 0
q_4_3_0 0
q_4_3_1 0
q_4_3_2 0
q_4_3_3 0
q_4_3_4 0
q_4_3_5 0
q_4_4_0 0
q_4_4_1 0
q_4_4_2 0
q_4_4_3 0
q_4_4_4 0
q_4_4_5 0
q_5_0_0 0
q_5_0_1 0
q_5_0_2 0
q_5_0_3 7.5000000000011525e+01
q_5_0_4 0
q_5_0_5 0
q_5_1_0 0
q_5_1_1 150
q_5_1_2 6.1325253892777615e-12
q_5_1_3 -6.3752233275775120e-12
q_5_1_4 0
q_5_1_5 0
q_5_2_0 0
q_5_2_1 0
q_5_2_2 7.4999999999988688e+01
q_5_2_3 0
q_5_2_4 0
q_5_2_5 0
q_5_3_0 0
q_5_3_1 0
q_5_3_2 0
q_5_3_3 0
q_5_3_4 0
q_5_3_5 0
q_5_4_0 0
q_5_4_1 0
q_5_4_2 0
q_5_4_3 0
q_5_4_4 0
q_5_4_5 0
q_6_0_0 0
q_6_0_1 0
q_6_0_2 0
q_6_0_3 0
q_6_0_4 0
q_6_0_5 0
q_6_1_0 0
q_6_1_1 0
q_6_1_2 6.8999999999991417e+01
q_6_1_3 6.3752233275775128e-12
q_6_1_4 0
q_6_1_5 0
q_6_2_0 0
q_6_2_1 0
q_6_2_2 0
q_6_2_3 0
q_6_2_4 138
q_6_2_5 0
q_6_3_0 0
q_6_3_1 138
q_6_3_2 0
q_6_3_3 0
q_6_3_4 0
q_6_3_5 0
q_6_4_0 0
q_6_4_1 0
q_6_4_2 0
q_6_4_3 0
q_6_4_4 0
q_6_4_5 0
q_7_0_0 1.8999999999998710e+01
q_7_0_1 2.5863755581667647e-12
q_7_0_2 0
q_7_0_3 -3.2174566101585865e-12
q_7_0_4 0
q_7_0_5 0
q_7_1_0 0
q_7_1_1 0
q_7_1_2 0
q_7_1_3 0
q_7_1_4 3.7999999999999972e+01
q_7_1_5 0
q_7_2_0 0
q_7_2_1 0
q_7_2_2 3.7999999999996476e+01
q_7_2_3 0
q_7_2_4 0
q_7_2_5 1.7834622667578515e-12
q_7_3_0 0
q_7_3_1 0
q_7_3_2 0
q_7_3_3 0
q_7_3_4 0
q_7_3_5 0
q_7_4_0 0
q_7_4_1 3.8422668992012842e-12
q_7_4_2 0
q_7_4_3 0
q_7_4_4 0
q_7_4_5 0
q_8_0_0 55
q_8_0_1 5.4999999999997414e+01
q_8_0_2 0
q_8_0_3 0
q_8_0_4 0
q_8_0_5 0
q_8_1_0 0
q_8_1_1 0
q_8_1_2 0
q_8_1_3 0
q_8_1_4 0
q_8_1_5 0
q_8_2_0 0
q_8_2_1 0
q_8_2_2 0
q_8_2_3 5.4999999999999986e+01
q_8_2_4 0
q_8_2_5 -1.7834622667578515e-12
q_8_3_0 0
q_8_3_1 0
q_8_3_2 5.5000000000002586e+01
q_8_3_3 0
q_8_3_4 0
q_8_3_5 0
q_8_4_0 0
q_8_4_1 0
q_8_4_2 0
q_8_4_3 0
q_8_4_4 1.8047785488306545e-12
q_8_4_5 0
q_9_0_0 0
q_9_0_1 0
q_9_0_2 0
q_9_0_3 0
q_9_0_4 0
q_9_0_5 0
q_9_1_0 99
q_9_1_1 0
q_9_1_2 0
q_9_1_3 99
q_9_1_4 0
q_9_1_5 0
q_9_2_0 0
q_9_2_1 99
q_9_2_2 0
q_9_2_3 0
q_9_2_4 0
q_9_2_5 0
q_9_3_0 0
q_9_3_1 0
q_9_3_2 0
q_9_3_3 0
q_9_3_4 0
q_9_3_5 0
q_9_4_0 0
q_9_4_1 0
q_9_4_2 99
q_9_4_3 0
q_9_4_4 0
q_9_4_5 0
q_10_0_0 0
q_10_0_1 0
q_10_0_2 0
q_10_0_3 0
q_10_0_4 0
q_10_0_5 0
q_10_1_0 0
q_10_1_1 0
q_10_1_2 0
q_10_1_3 3.8440362004621420e-12
q_10_1_4 86
q_10_1_5 0
q_10_2_0 43
q_10_2_1 0
q_10_2_2 0
q_10_2_3 0
q_10_2_4 0
q_10_2_5 0
q_10_3_0 0
q_10_3_1 0
q_10_3_2 86
q_10_3_3 0
q_10_3_4 0
q_10_3_5 0
q_10_4_0 0
q_10_4_1 -3.8422668992012834e-12
q_10_4_2 0
q_10_4_3 0
q_10_4_4 0
q_10_4_5 0
y_0_0_0 1
y_0_0_1 1
y_0_0_2 1
y_0_0_3 1
y_0_0_4 1
y_0_0_5 0
y_0_1_0 1
y_0_1_1 1
y_0_1_2 1
y_0_1_3 1
y_0_1_4 1
y_0_1_5 0
y_0_2_0 1
y_0_2_1 1
y_0_2_2 1
y_0_2_3 1
y_0_2_4 1
y_0_2_5 0
y_0_3_0 0
y_0_3_1 1
y_0_3_2 1
y_0_3_3 0
y_0_3_4 0
y_0_3_5 0
y_0_4_0 0
y_0_4_1 0
y_0_4_2 1
y_0_4_3 0
y_0_4_4 1.1795938227651337e-14
y_0_4_5 0
y_1_0_0 1
y_1_0_1 0
y_1_0_2 1
y_1_0_3 1
y_1_0_4 1
y_1_0_5 0
y_1_1_0 0
y_1_1_1 0
y_1_1_2 0
y_1_1_3 0
y_1_1_4 0
y_1_1_5 0
y_1_2_0 0
y_1_2_1 0
y_1_2_2 0
y_1_2_3 0
y_1_2_4 0
y_1_2_5 0
y_1_3_0 0
y_1_3_1 0
y_1_3_2 0
y_1_3_3 0
y_1_3_4 0
y_1_3_5 0
y_1_4_0 0
y_1_4_1 0
y_1_4_2 0
y_1_4_3 0
y_1_4_4 0
y_1_4_5 0
y_2_0_0 0
y_2_0_1 1
y_2_0_2 0
y_2_0_3 0
y_2_0_4 1
y_2_0_5 0
y_2_1_0 0
y_2_1_1 0
y_2_1_2 1
y_2_1_3 0
y_2_1_4 0
y_2_1_5 0
y_2_2_0 1
y_2_2_1 0
y_2_2_2 0
y_2_2_3 1
y_2_2_4 0
y_2_2_5 0
y_2_3_0 0
y_2_3_1 0
y_2_3_2 0
y_2_3_3 0
y_2_3_4 0
y_2_3_5 0
y_2_4_0 0
y_2_4_1 0
y_2_4_2 0
y_2_4_3 0
y_2_4_4 0
y_2_4_5 0
y_3_0_0 1
y_3_0_1 0
y_3_0_2 1
y_3_0_3 0
y_3_0_4 0
y_3_0_5 0
y_3_1_0 0
y_3_1_1 0
y_3_1_2 0
y_3_1_3 0
y_3_1_4 9.9999999999999933e-01
y_3_1_5 0
y_3_2_0 0
y_3_2_1 0
y_3_2_2 0
y_3_2_3 0
y_3_2_4 0
y_3_2_5 0
y_3_3_0 0
y_3_3_1 0
y_3_3_2 0
y_3_3_3 0
y_3_3_4 0
y_3_3_5 0
y_3_4_0 0
y_3_4_1 0
y_3_4_2 0
y_3_4_3 0
y_3_4_4 0
y_3_4_5 0
y_4_0_0 0
y_4_0_1 1
y_4_0_2 0
y_4_0_3 0
y_4_0_4 1
y_4_0_5 0
y_4_1_0 0
y_4_1_1 0
y_4_1_2 0
y_4_1_3 8.5002977701034564e-14
y_4_1_4 0
y_4_1_5 0
y_4_2_0 0
y_4_2_1 0
y_4_2_2 0
y_4_2_3 1
y_4_2_4 0
y_4_2_5 0
y_4_3_0 0
y_4_3_1 0
y_4_3_2 0
y_4_3_3 0
y_4_3_4 0
y_4_3_5 0
y_4_4_0 0
y_4_4_1 0
y_4_4_2 0
y_4_4_3 0
y_4_4_4 0
y_4_4_5 0
y_5_0_0 0
y_5_0_1 0
y_5_0_2 0
y_5_0_3 1.0000000000000846e+00
y_5_0_4 0
y_5_0_5 0
y_5_1_0 0
y_5_1_1 1
y_5_1_2 -6.9139805287254131e-14
y_5_1_3 -8.5002977701034564e-14
y_5_1_4 0
y_5_1_5 0
y_5_2_0 0
y_5_2_1 0
y_5_2_2 1
y_5_2_3 0
y_5_2_4 0
y_5_2_5 0
y_5_3_0 0
y_5_3_1 0
y_5_3_2 0
y_5_3_3 0
y_5_3_4 0
y_5_3_5 0
y_5_4_0 0
y_5_4_1 0
y_5_4_2 0
y_5_4_3 0
y_5_4_4 0
y_5_4_5 0
y_6_0_0 0
y_6_0_1 0
y_6_0_2 0
y_6_0_3 0
y_6_0_4 0
y_6_0_5 0
y_6_1_0 0
y_6_1_1 0
y_6_1_2 9.9999999999987588e-01
y_6_1_3 0
y_6_1_4 0
y_6_1_5 0
y_6_2_0 0
y_6_2_1 0
y_6_2_2 0
y_6_2_3 0
y_6_2_4 1
y_6_2_5 0
y_6_3_0 0
y_6_3_1 1
y_6_3_2 0
y_6_3_3 0
y_6_3_4 0
y_6_3_5 0
y_6_4_0 0
y_6_4_1 0
y_6_4_2 0
y_6_4_3 0
y_6_4_4 0
y_6_4_5 0
y_7_0_0 0.999999999999932
y_7_0_1 6.8062514688599074e-14
y_7_0_2 0
y_7_0_3 -8.4669910793647017e-14
y_7_0_4 0
y_7_0_5 0
y_7_1_0 0
y_7_1_1 0
y_7_1_2 0
y_7_1_3 0
y_7_1_4 9.9999999999999933e-01
y_7_1_5 0
y_7_2_0 0
y_7_2_1 0
y_7_2_2 9.9999999999990730e-01
y_7_2_3 0
y_7_2_4 0
y_7_2_5 0
y_7_3_0 0
y_7_3_1 0
y_7_3_2 0
y_7_3_3 0
y_7_3_4 0
y_7_3_5 0
y_7_4_0 0
y_7_4_1 0
y_7_4_2 0
y_7_4_3 0
y_7_4_4 0
y_7_4_5 0
y_8_0_0 1
y_8_0_1 1
y_8_0_2 0
y_8_0_3 0
y_8_0_4 0
y_8_0_5 0
y_8_1_0 0
y_8_1_1 0
y_8_1_2 0
y_8_1_3 0
y_8_1_4 0
y_8_1_5 0
y_8_2_0 0
y_8_2_1 0
y_8_2_2 0
y_8_2_3 9.9999999999999978e-01
y_8_2_4 0
y_8_2_5 0
y_8_3_0 0
y_8_3_1 0
y_8_3_2 1
y_8_3_3 0
y_8_3_4 0
y_8_3_5 0
y_8_4_0 0
y_8_4_1 0
y_8_4_2 0
y_8_4_3 0
y_8_4_4 0
y_8_4_5 0
y_9_0_0 0
y_9_0_1 0
y_9_0_2 0
y_9_0_3 0
y_9_0_4 0
y_9_0_5 0
y_9_1_0 1
y_9_1_1 0
y_9_1_2 0
y_9_1_3 1
y_9_1_4 0
y_9_1_5 0
y_9_2_0 0
y_9_2_1 1
y_9_2_2 0
y_9_2_3 0
y_9_2_4 0
y_9_2_5 0
y_9_3_0 0
y_9_3_1 0
y_9_3_2 0
y_9_3_3 0
y_9_3_4 0
y_9_3_5 0
y_9_4_0 0
y_9_4_1 0
y_9_4_2 1
y_9_4_3 0
y_9_4_4 0
y_9_4_5 0
y_10_0_0 0
y_10_0_1 0
y_10_0_2 0
y_10_0_3 0
y_10_0_4 0
y_10_0_5 0
y_10_1_0 0
y_10_1_1 0
y_10_1_2 0
y_10_1_3 0
y_10_1_4 1
y_10_1_5 0
y_10_2_0 1
y_10_2_1 0
y_10_2_2 0
y_10_2_3 0
y_10_2_4 0
y_10_2_5 0
y_10_3_0 0
y_10_3_1 0
y_10_3_2 1
y_10_3_3 0
y_10_3_4 0
y_10_3_5 0
y_10_4_0 0
y_10_4_1 0
y_10_4_2 0
y_10_4_3 0
y_10_4_4 0
y_10_4_5 0
x_0_1_0_0 0
x_0_1_0_1 0
x_0_1_0_2 1
x_0_1_0_3 1
x_0_1_0_4 1
x_0_1_0_5 0
x_0_1_1_0 0
x_0_1_1_1 0
x_0_1_1_2 0
x_0_1_1_3 0
x_0_1_1_4 0
x_0_1_1_5 0
x_0_1_2_0 0
x_0_1_2_1 0
x_0_1_2_2 0
x_0_1_2_3 0
x_0_1_2_4 0
x_0_1_2_5 0
x_0_1_3_0 0
x_0_1_3_1 0
x_0_1_3_2 0
x_0_1_3_3 0
x_0_1_3_4 0
x_0_1_3_5 0
x_0_1_4_0 0
x_0_1_4_1 0
x_0_1_4_2 0
x_0_1_4_3 0
x_0_1_4_4 0
x_0_1_4_5 0
x_0_2_0_0 0
x_0_2_0_1 1
x_0_2_0_2 0
x_0_2_0_3 0
x_0_2_0_4 1
x_0_2_0_5 0
x_0_2_1_0 0
x_0_2_1_1 0
x_0_2_1_2 1.0000000000002751e+00
x_0_2_1_3 0
x_0_2_1_4 0
x_0_2_1_5 0
x_0_2_2_0 1
x_0_2_2_1 0
x_0_2_2_2 0
x_0_2_2_3 1
x_0_2_2_4 0
x_0_2_2_5 0
x_0_2_3_0 0
x_0_2_3_1 0
x_0_2_3_2 0
x_0_2_3_3 0
x_0_2_3_4 0
x_0_2_3_5 0
x_0_2_4_0 0
x_0_2_4_1 0
x_0_2_4_2 0
x_0_2_4_3 0
x_0_2_4_4 0
x_0_2_4_5 0
x_0_3_0_0 0
x_0_3_0_1 0
x_0_3_0_2 1
x_0_3_0_3 0
x_0_3_0_4 0
x_0_3_0_5 0
x_0_3_1_0 0
x_0_3_1_1 0
x_0_3_1_2 0
x_0_3_1_3 0
x_0_3_1_4 0
x_0_3_1_5 0
x_0_3_2_0 0
x_0_3_2_1 0
x_0_3_2_2 0
x_0_3_2_3 0
x_0_3_2_4 0
x_0_3_2_5 0
x_0_3_3_0 0
x_0_3_3_1 0
x_0_3_3_2 0
x_0_3_3_3 0
x_0_3_3_4 0
x_0_3_3_5 0
x_0_3_4_0 0
x_0_3_4_1 0
x_0_3_4_2 0
x_0_3_4_3 0
x_0_3_4_4 0
x_0_3_4_5 0
x_0_4_0_0 0
x_0_4_0_1 0
x_0_4_0_2 0
x_0_4_0_3 0
x_0_4_0_4 0
x_0_4_0_5 0
x_0_4_1_0 0
x_0_4_1_1 0
x_0_4_1_2 0
x_0_4_1_3 0
x_0_4_1_4 0
x_0_4_1_5 0
x_0_4_2_0 0
x_0_4_2_1 0
x_0_4_2_2 0
x_0_4_2_3 0
x_0_4_2_4 0
x_0_4_2_5 0
x_0_4_3_0 0
x_0_4_3_1 0
x_0_4_3_2 0
x_0_4_3_3 0
x_0_4_3_4 0
x_0_4_3_5 0
x_0_4_4_0 0
x_0_4_4_1 0
x_0_4_4_2 0
x_0_4_4_3 0
x_0_4_4_4 0
x_0_4_4_5 0
x_0_5_0_0 0
x_0_5_0_1 0
x_0_5_0_2 0
x_0_5_0_3 1.0000000000001692e+00
x_0_5_0_4 0
x_0_5_0_5 0
x_0_5_1_0 0
x_0_5_1_1 2
x_0_5_1_2 -1.3827961057450829e-13
x_0_5_1_3 0
x_0_5_1_4 0
x_0_5_1_5 0
x_0_5_2_0 0
x_0_5_2_1 0
x_0_5_2_2 1.0000000000000928e+00
x_0_5_2_3 0
x_0_5_2_4 0
x_0_5_2_5 0
x_0_5_3_0 0
x_0_5_3_1 0
x_0_5_3_2 0
x_0_5_3_3 0
x_0_5_3_4 0
x_0_5_3_5 0
x_0_5_4_0 0
x_0_5_4_1 0
x_0_5_4_2 0
x_0_5_4_3 0
x_0_5_4_4 0
x_0_5_4_5 0
x_0_6_0_0 0
x_0_6_0_1 0
x_0_6_0_2 0
x_0_6_0_3 0
x_0_6_0_4 0
x_0_6_0_5 0
x_0_6_1_0 0
x_0_6_1_1 0
x_0_6_1_2 1.0000000000000269e+00
x_0_6_1_3 -1.7000595540206913e-13
x_0_6_1_4 0
x_0_6_1_5 0
x_0_6_2_0 0
x_0_6_2_1 0
x_0_6_2_2 0
x_0_6_2_3 0
x_0_6_2_4 2
x_0_6_2_5 0
x_0_6_3_0 0
x_0_6_3_1 2
x_0_6_3_2 0
x_0_6_3_3 0
x_0_6_3_4 0
x_0_6_3_5 0
x_0_6_4_0 0
x_0_6_4_1 0
x_0_6_4_2 0
x_0_6_4_3 0
x_0_6_4_4 0
x_0_6_4_5 0
x_0_7_0_0 0.999999999999932
x_0_7_0_1 0
x_0_7_0_2 0
x_0_7_0_3 -1.6933982158729403e-13
x_0_7_0_4 0
x_0_7_0_5 0
x_0_7_1_0 0
x_0_7_1_1 0
x_0_7_1_2 0
x_0_7_1_3 1.7000595540206913e-13
x_0_7_1_4 1
x_0_7_1_5 0
x_0_7_2_0 0
x_0_7_2_1 0
x_0_7_2_2 9.9999999999990719e-01
x_0_7_2_3 0
x_0_7_2_4 0
x_0_7_2_5 0
x_0_7_3_0 0
x_0_7_3_1 0
x_0_7_3_2 0
x_0_7_3_3 0
x_0_7_3_4 0
x_0_7_3_5 0
x_0_7_4_0 0
x_0_7_4_1 0
x_0_7_4_2 0
x_0_7_4_3 0
x_0_7_4_4 0
x_0_7_4_5 0
x_0_8_0_0 1
x_0_8_0_1 9.9999999999986389e-01
x_0_8_0_2 0
x_0_8_0_3 0
x_0_8_0_4 0
x_0_8_0_5 0
x_0_8_1_0 0
x_0_8_1_1 0
x_0_8_1_2 0
x_0_8_1_3 0
x_0_8_1_4 0
x_0_8_1_5 0
x_0_8_2_0 0
x_0_8_2_1 0
x_0_8_2_2 0
x_0_8_2_3 9.9999999999999978e-01
x_0_8_2_4 0
x_0_8_2_5 0
x_0_8_3_0 0
x_0_8_3_1 0
x_0_8_3_2 1
x_0_8_3_3 0
x_0_8_3_4 0
x_0_8_3_5 0
x_0_8_4_0 0
x_0_8_4_1 0
x_0_8_4_2 0
x_0_8_4_3 0
x_0_8_4_4 0
x_0_8_4_5 0
x_0_9_0_0 0
x_0_9_0_1 0
x_0_9_0_2 0
x_0_9_0_3 0
x_0_9_0_4 0
x_0_9_0_5 0
x_0_9_1_0 2
x_0_9_1_1 0
x_0_9_1_2 0
x_0_9_1_3 2
x_0_9_1_4 0
x_0_9_1_5 0
x_0_9_2_0 0
x_0_9_2_1 2
x_0_9_2_2 0
x_0_9_2_3 0
x_0_9_2_4 0
x_0_9_2_5 0
x_0_9_3_0 0
x_0_9_3_1 0
x_0_9_3_2 0
x_0_9_3_3 0
x_0_9_3_4 0
x_0_9_3_5 0
x_0_9_4_0 0
x_0_9_4_1 0
x_0_9_4_2 2
x_0_9_4_3 0
x_0_9_4_4 0
x_0_9_4_5 0
x_0_10_0_0 0
x_0_10_0_1 0
x_0_10_0_2 0
x_0_10_0_3 0
x_0_10_0_4 0
x_0_10_0_5 0
x_0_10_1_0 0
x_0_10_1_1 0
x_0_10_1_2 0
x_0_10_1_3 0
x_0_10_1_4 1
x_0_10_1_5 0
x_0_10_2_0 1
x_0_10_2_1 0
x_0_10_2_2 0
x_0_10_2_3 0
x_0_10_2_4 0
x_0_10_2_5 0
x_0_10_3_0 0
x_0_10_3_1 0
x_0_10_3_2 1
x_0_10_3_3 0
x_0_10_3_4 0
x_0_10_3_5 0
x_0_10_4_0 0
x_0_10_4_1 0
x_0_10_4_2 0
x_0_10_4_3 0
x_0_10_4_4 0
x_0_10_4_5 0
x_1_2_0_0 0
x_1_2_0_1 0
x_1_2_0_2 0
x_1_2_0_3 0
x_1_2_0_4 0
x_1_2_0_5 0
x_1_2_1_0 0
x_1_2_1_1 0
x_1_2_1_2 0
x_1_2_1_3 0
x_1_2_1_4 0
x_1_2_1_5 0
x_1_2_2_0 0
x_1_2_2_1 0
x_1_2_2_2 0
x_1_2_2_3 0
x_1_2_2_4 0
x_1_2_2_5 0
x_1_2_3_0 0
x_1_2_3_1 0
x_1_2_3_2 0
x_1_2_3_3 0
x_1_2_3_4 0
x_1_2_3_5 0
x_1_2_4_0 0
x_1_2_4_1 0
x_1_2_4_2 0
x_1_2_4_3 0
x_1_2_4_4 0
x_1_2_4_5 0
x_1_3_0_0 1
x_1_3_0_1 0
x_1_3_0_2 1
x_1_3_0_3 0
x_1_3_0_4 0
x_1_3_0_5 0
x_1_3_1_0 0
x_1_3_1_1 0
x_1_3_1_2 0
x_1_3_1_3 0
x_1_3_1_4 0
x_1_3_1_5 0
x_1_3_2_0 0
x_1_3_2_1 0
x_1_3_2_2 0
x_1_3_2_3 0
x_1_3_2_4 0
x_1_3_2_5 0
x_1_3_3_0 0
x_1_3_3_1 0
x_1_3_3_2 0
x_1_3_3_3 0
x_1_3_3_4 0
x_1_3_3_5 0
x_1_3_4_0 0
x_1_3_4_1 0
x_1_3_4_2 0
x_1_3_4_3 0
x_1_3_4_4 0
x_1_3_4_5 0
x_1_4_0_0 0
x_1_4_0_1 0
x_1_4_0_2 0
x_1_4_0_3 0
x_1_4_0_4 1
x_1_4_0_5 0
x_1_4_1_0 0
x_1_4_1_1 0
x_1_4_1_2 0
x_1_4_1_3 0
x_1_4_1_4 0
x_1_4_1_5 0
x_1_4_2_0 0
x_1_4_2_1 0
x_1_4_2_2 0
x_1_4_2_3 0
x_1_4_2_4 0
x_1_4_2_5 0
x_1_4_3_0 0
x_1_4_3_1 0
x_1_4_3_2 0
x_1_4_3_3 0
x_1_4_3_4 0
x_1_4_3_5 0
x_1_4_4_0 0
x_1_4_4_1 0
x_1_4_4_2 0
x_1_4_4_3 0
x_1_4_4_4 0
x_1_4_4_5 0
x_1_5_0_0 0
x_1_5_0_1 0
x_1_5_0_2 0
x_1_5_0_3 1
x_1_5_0_4 0
x_1_5_0_5 0
x_1_5_1_0 0
x_1_5_1_1 0
x_1_5_1_2 0
x_1_5_1_3 0
x_1_5_1_4 0
x_1_5_1_5 0
x_1_5_2_0 0
x_1_5_2_1 0
x_1_5_2_2 0
x_1_5_2_3 0
x_1_5_2_4 0
x_1_5_2_5 0
x_1_5_3_0 0
x_1_5_3_1 0
x_1_5_3_2 0
x_1_5_3_3 0
x_1_5_3_4 0
x_1_5_3_5 0
x_1_5_4_0 0
x_1_5_4_1 0
x_1_5_4_2 0
x_1_5_4_3 0
x_1_5_4_4 0
x_1_5_4_5 0
x_1_6_0_0 0
x_1_6_0_1 0
x_1_6_0_2 0
x_1_6_0_3 0
x_1_6_0_4 0
x_1_6_0_5 0
x_1_6_1_0 0
x_1_6_1_1 0
x_1_6_1_2 0
x_1_6_1_3 0
x_1_6_1_4 0
x_1_6_1_5 0
x_1_6_2_0 0
x_1_6_2_1 0
x_1_6_2_2 0
x_1_6_2_3 0
x_1_6_2_4 0
x_1_6_2_5 0
x_1_6_3_0 0
x_1_6_3_1 0
x_1_6_3_2 0
x_1_6_3_3 0
x_1_6_3_4 0
x_1_6_3_5 0
x_1_6_4_0 0
x_1_6_4_1 0
x_1_6_4_2 0
x_1_6_4_3 0
x_1_6_4_4 0
x_1_6_4_5 0
x_1_7_0_0 0.999999999999932
x_1_7_0_1 0
x_1_7_0_2 0
x_1_7_0_3 0
x_1_7_0_4 0
x_1_7_0_5 0
x_1_7_1_0 0
x_1_7_1_1 0
x_1_7_1_2 0
x_1_7_1_3 0
x_1_7_1_4 0
x_1_7_1_5 0
x_1_7_2_0 0
x_1_7_2_1 0
x_1_7_2_2 0
x_1_7_2_3 0
x_1_7_2_4 0
x_1_7_2_5 0
x_1_7_3_0 0
x_1_7_3_1 0
x_1_7_3_2 0
x_1_7_3_3 0
x_1_7_3_4 0
x_1_7_3_5 0
x_1_7_4_0 0
x_1_7_4_1 0
x_1_7_4_2 0
x_1_7_4_3 0
x_1_7_4_4 0
x_1_7_4_5 0
x_1_8_0_0 0
x_1_8_0_1 0
x_1_8_0_2 0
x_1_8_0_3 0
x_1_8_0_4 0
x_1_8_0_5 0
x_1_8_1_0 0
x_1_8_1_1 0
x_1_8_1_2 0
x_1_8_1_3 0
x_1_8_1_4 0
x_1_8_1_5 0
x_1_8_2_0 0
x_1_8_2_1 0
x_1_8_2_2 0
x_1_8_2_3 0
x_1_8_2_4 0
x_1_8_2_5 0
x_1_8_3_0 0
x_1_8_3_1 0
x_1_8_3_2 0
x_1_8_3_3 0
x_1_8_3_4 0
x_1_8_3_5 0
x_1_8_4_0 0
x_1_8_4_1 0
x_1_8_4_2 0
x_1_8_4_3 0
x_1_8_4_4 0
x_1_8_4_5 0
x_1_9_0_0 0
x_1_9_0_1 0
x_1_9_0_2 0
x_1_9_0_3 0
x_1_9_0_4 0
x_1_9_0_5 0
x_1_9_1_0 0
x_1_9_1_1 0
x_1_9_1_2 0
x_1_9_1_3 0
x_1_9_1_4 0
x_1_9_1_5 0
x_1_9_2_0 0
x_1_9_2_1 0
x_1_9_2_2 0
x_1_9_2_3 0
x_1_9_2_4 0
x_1_9_2_5 0
x_1_9_3_0 0
x_1_9_3_1 0
x_1_9_3_2 0
x_1_9_3_3 0
x_1_9_3_4 0
x_1_9_3_5 0
x_1_9_4_0 0
x_1_9_4_1 0
x_1_9_4_2 0
x_1_9_4_3 0
x_1_9_4_4 0
x_1_9_4_5 0
x_1_10_0_0 0
x_1_10_0_1 0
x_1_10_0_2 0
x_1_10_0_3 0
x_1_10_0_4 0
x_1_10_0_5 0
x_1_10_1_0 0
x_1_10_1_1 0
x_1_10_1_2 0
x_1_10_1_3 0
x_1_10_1_4 0
x_1_10_1_5 0
x_1_10_2_0 0
x_1_10_2_1 0
x_1_10_2_2 0
x_1_10_2_3 0
x_1_10_2_4 0
x_1_10_2_5 0
x_1_10_3_0 0
x_1_10_3_1 0
x_1_10_3_2 0
x_1_10_3_3 0
x_1_10_3_4 0
x_1_10_3_5 0
x_1_10_4_0 0
x_1_10_4_1 0
x_1_10_4_2 0
x_1_10_4_3 0
x_1_10_4_4 0
x_1_10_4_5 0
x_2_3_0_0 0
x_2_3_0_1 0
x_2_3_0_2 0
x_2_3_0_3 0
x_2_3_0_4 0
x_2_3_0_5 0
x_2_3_1_0 0
x_2_3_1_1 0
x_2_3_1_2 0
x_2_3_1_3 0
x_2_3_1_4 0
x_2_3_1_5 0
x_2_3_2_0 0
x_2_3_2_1 0
x_2_3_2_2 0
x_2_3_2_3 0
x_2_3_2_4 0
x_2_3_2_5 0
x_2_3_3_0 0
x_2_3_3_1 0
x_2_3_3_2 0
x_2_3_3_3 0
x_2_3_3_4 0
x_2_3_3_5 0
x_2_3_4_0 0
x_2_3_4_1 0
x_2_3_4_2 0
x_2_3_4_3 0
x_2_3_4_4 0
x_2_3_4_5 0
x_2_4_0_0 0
x_2_4_0_1 1
x_2_4_0_2 0
x_2_4_0_3 0
x_2_4_0_4 1
x_2_4_0_5 0
x_2_4_1_0 0
x_2_4_1_1 0
x_2_4_1_2 0
x_2_4_1_3 0
x_2_4_1_4 0
x_2_4_1_5 0
x_2_4_2_0 0
x_2_4_2_1 0
x_2_4_2_2 0
x_2_4_2_3 1
x_2_4_2_4 0
x_2_4_2_5 0
x_2_4_3_0 0
x_2_4_3_1 0
x_2_4_3_2 0
x_2_4_3_3 0
x_2_4_3_4 0
x_2_4_3_5 0
x_2_4_4_0 0
x_2_4_4_1 0
x_2_4_4_2 0
x_2_4_4_3 0
x_2_4_4_4 0
x_2_4_4_5 0
x_2_5_0_0 0
x_2_5_0_1 0
x_2_5_0_2 0
x_2_5_0_3 0
x_2_5_0_4 0
x_2_5_0_5 0
x_2_5_1_0 0
x_2_5_1_1 0
x_2_5_1_2 0
x_2_5_1_3 0
x_2_5_1_4 0
x_2_5_1_5 0
x_2_5_2_0 0
x_2_5_2_1 0
x_2_5_2_2 0
x_2_5_2_3 0
x_2_5_2_4 0
x_2_5_2_5 0
x_2_5_3_0 0
x_2_5_3_1 0
x_2_5_3_2 0
x_2_5_3_3 0
x_2_5_3_4 0
x_2_5_3_5 0
x_2_5_4_0 0
x_2_5_4_1 0
x_2_5_4_2 0
x_2_5_4_3 0
x_2_5_4_4 0
x_2_5_4_5 0
x_2_6_0_0 0
x_2_6_0_1 0
x_2_6_0_2 0
x_2_6_0_3 0
x_2_6_0_4 0
x_2_6_0_5 0
x_2_6_1_0 0
x_2_6_1_1 0
x_2_6_1_2 9.9999999999972489e-01
x_2_6_1_3 0
x_2_6_1_4 0
x_2_6_1_5 0
x_2_6_2_0 0
x_2_6_2_1 0
x_2_6_2_2 0
x_2_6_2_3 0
x_2_6_2_4 0
x_2_6_2_5 0
x_2_6_3_0 0
x_2_6_3_1 0
x_2_6_3_2 0
x_2_6_3_3 0
x_2_6_3_4 0
x_2_6_3_5 0
x_2_6_4_0 0
x_2_6_4_1 0
x_2_6_4_2 0
x_2_6_4_3 0
x_2_6_4_4 0
x_2_6_4_5 0
x_2_7_0_0 0
x_2_7_0_1 0
x_2_7_0_2 0
x_2_7_0_3 0
x_2_7_0_4 0
x_2_7_0_5 0
x_2_7_1_0 0
x_2_7_1_1 0
x_2_7_1_2 0
x_2_7_1_3 0
x_2_7_1_4 0
x_2_7_1_5 0
x_2_7_2_0 0
x_2_7_2_1 0
x_2_7_2_2 0
x_2_7_2_3 0
x_2_7_2_4 0
x_2_7_2_5 0
x_2_7_3_0 0
x_2_7_3_1 0
x_2_7_3_2 0
x_2_7_3_3 0
x_2_7_3_4 0
x_2_7_3_5 0
x_2_7_4_0 0
x_2_7_4_1 0
x_2_7_4_2 0
x_2_7_4_3 0
x_2_7_4_4 0
x_2_7_4_5 0
x_2_8_0_0 0
x_2_8_0_1 0
x_2_8_0_2 0
x_2_8_0_3 0
x_2_8_0_4 0
x_2_8_0_5 0
x_2_8_1_0 0
x_2_8_1_1 0
x_2_8_1_2 0
x_2_8_1_3 0
x_2_8_1_4 0
x_2_8_1_5 0
x_2_8_2_0 0
x_2_8_2_1 0
x_2_8_2_2 0
x_2_8_2_3 0
x_2_8_2_4 0
x_2_8_2_5 0
x_2_8_3_0 0
x_2_8_3_1 0
x_2_8_3_2 0
x_2_8_3_3 0
x_2_8_3_4 0
x_2_8_3_5 0
x_2_8_4_0 0
x_2_8_4_1 0
x_2_8_4_2 0
x_2_8_4_3 0
x_2_8_4_4 0
x_2_8_4_5 0
x_2_9_0_0 0
x_2_9_0_1 0
x_2_9_0_2 0
x_2_9_0_3 0
x_2_9_0_4 0
x_2_9_0_5 0
x_2_9_1_0 0
x_2_9_1_1 0
x_2_9_1_2 0
x_2_9_1_3 0
x_2_9_1_4 0
x_2_9_1_5 0
x_2_9_2_0 0
x_2_9_2_1 0
x_2_9_2_2 0
x_2_9_2_3 0
x_2_9_2_4 0
x_2_9_2_5 0
x_2_9_3_0 0
x_2_9_3_1 0
x_2_9_3_2 0
x_2_9_3_3 0
x_2_9_3_4 0
x_2_9_3_5 0
x_2_9_4_0 0
x_2_9_4_1 0
x_2_9_4_2 0
x_2_9_4_3 0
x_2_9_4_4 0
x_2_9_4_5 0
x_2_10_0_0 0
x_2_10_0_1 0
x_2_10_0_2 0
x_2_10_0_3 0
x_2_10_0_4 0
x_2_10_0_5 0
x_2_10_1_0 0
x_2_10_1_1 0
x_2_10_1_2 0
x_2_10_1_3 0
x_2_10_1_4 0
x_2_10_1_5 0
x_2_10_2_0 1
x_2_10_2_1 0
x_2_10_2_2 0
x_2_10_2_3 0
x_2_10_2_4 0
x_2_10_2_5 0
x_2_10_3_0 0
x_2_10_3_1 0
x_2_10_3_2 0
x_2_10_3_3 0
x_2_10_3_4 0
x_2_10_3_5 0
x_2_10_4_0 0
x_2_10_4_1 0
x_2_10_4_2 0
x_2_10_4_3 0
x_2_10_4_4 0
x_2_10_4_5 0
x_3_4_0_0 0
x_3_4_0_1 0
x_3_4_0_2 0
x_3_4_0_3 0
x_3_4_0_4 0
x_3_4_0_5 0
x_3_4_1_0 0
x_3_4_1_1 0
x_3_4_1_2 0
x_3_4_1_3 0
x_3_4_1_4 0
x_3_4_1_5 0
x_3_4_2_0 0
x_3_4_2_1 0
x_3_4_2_2 0
x_3_4_2_3 0
x_3_4_2_4 0
x_3_4_2_5 0
x_3_4_3_0 0
x_3_4_3_1 0
x_3_4_3_2 0
x_3_4_3_3 0
x_3_4_3_4 0
x_3_4_3_5 0
x_3_4_4_0 0
x_3_4_4_1 0
x_3_4_4_2 0
x_3_4_4_3 0
x_3_4_4_4 0
x_3_4_4_5 0
x_3_5_0_0 0
x_3_5_0_1 0
x_3_5_0_2 0
x_3_5_0_3 0
x_3_5_0_4 0
x_3_5_0_5 0
x_3_5_1_0 0
x_3_5_1_1 0
x_3_5_1_2 0
x_3_5_1_3 0
x_3_5_1_4 0
x_3_5_1_5 0
x_3_5_2_0 0
x_3_5_2_1 0
x_3_5_2_2 0
x_3_5_2_3 0
x_3_5_2_4 0
x_3_5_2_5 0
x_3_5_3_0 0
x_3_5_3_1 0
x_3_5_3_2 0
x_3_5_3_3 0
x_3_5_3_4 0
x_3_5_3_5 0
x_3_5_4_0 0
x_3_5_4_1 0
x_3_5_4_2 0
x_3_5_4_3 0
x_3_5_4_4 0
x_3_5_4_5 0
x_3_6_0_0 0
x_3_6_0_1 0
x_3_6_0_2 0
x_3_6_0_3 0
x_3_6_0_4 0
x_3_6_0_5 0
x_3_6_1_0 0
x_3_6_1_1 0
x_3_6_1_2 0
x_3_6_1_3 0
x_3_6_1_4 0
x_3_6_1_5 0
x_3_6_2_0 0
x_3_6_2_1 0
x_3_6_2_2 0
x_3_6_2_3 0
x_3_6_2_4 0
x_3_6_2_5 0
x_3_6_3_0 0
x_3_6_3_1 0
x_3_6_3_2 0
x_3_6_3_3 0
x_3_6_3_4 0
x_3_6_3_5 0
x_3_6_4_0 0
x_3_6_4_1 0
x_3_6_4_2 0
x_3_6_4_3 0
x_3_6_4_4 0
x_3_6_4_5 0
x_3_7_0_0 0
x_3_7_0_1 0
x_3_7_0_2 0
x_3_7_0_3 0
x_3_7_0_4 0
x_3_7_0_5 0
x_3_7_1_0 0
x_3_7_1_1 0
x_3_7_1_2 0
x_3_7_1_3 0
x_3_7_1_4 9.9999999999999867e-01
x_3_7_1_5 0
x_3_7_2_0 0
x_3_7_2_1 0
x_3_7_2_2 0
x_3_7_2_3 0
x_3_7_2_4 0
x_3_7_2_5 0
x_3_7_3_0 0
x_3_7_3_1 0
x_3_7_3_2 0
x_3_7_3_3 0
x_3_7_3_4 0
x_3_7_3_5 0
x_3_7_4_0 0
x_3_7_4_1 0
x_3_7_4_2 0
x_3_7_4_3 0
x_3_7_4_4 0
x_3_7_4_5 0
x_3_8_0_0 1
x_3_8_0_1 0
x_3_8_0_2 0
x_3_8_0_3 0
x_3_8_0_4 0
x_3_8_0_5 0
x_3_8_1_0 0
x_3_8_1_1 0
x_3_8_1_2 0
x_3_8_1_3 0
x_3_8_1_4 0
x_3_8_1_5 0
x_3_8_2_0 0
x_3_8_2_1 0
x_3_8_2_2 0
x_3_8_2_3 0
x_3_8_2_4 0
x_3_8_2_5 0
x_3_8_3_0 0
x_3_8_3_1 0
x_3_8_3_2 0
x_3_8_3_3 0
x_3_8_3_4 0
x_3_8_3_5 0
x_3_8_4_0 0
x_3_8_4_1 0
x_3_8_4_2 0
x_3_8_4_3 0
x_3_8_4_4 0
x_3_8_4_5 0
x_3_9_0_0 0
x_3_9_0_1 0
x_3_9_0_2 0
x_3_9_0_3 0
x_3_9_0_4 0
x_3_9_0_5 0
x_3_9_1_0 0
x_3_9_1_1 0
x_3_9_1_2 0
x_3_9_1_3 0
x_3_9_1_4 0
x_3_9_1_5 0
x_3_9_2_0 0
x_3_9_2_1 0
x_3_9_2_2 0
x_3_9_2_3 0
x_3_9_2_4 0
x_3_9_2_5 0
x_3_9_3_0 0
x_3_9_3_1 0
x_3_9_3_2 0
x_3_9_3_3 0
x_3_9_3_4 0
x_3_9_3_5 0
x_3_9_4_0 0
x_3_9_4_1 0
x_3_9_4_2 0
x_3_9_4_3 0
x_3_9_4_4 0
x_3_9_4_5 0
x_3_10_0_0 0
x_3_10_0_1 0
x_3_10_0_2 0
x_3_10_0_3 0
x_3_10_0_4 0
x_3_10_0_5 0
x_3_10_1_0 0
x_3_10_1_1 0
x_3_10_1_2 0
x_3_10_1_3 0
x_3_10_1_4 1
x_3_10_1_5 0
x_3_10_2_0 0
x_3_10_2_1 0
x_3_10_2_2 0
x_3_10_2_3 0
x_3_10_2_4 0
x_3_10_2_5 0
x_3_10_3_0 0
x_3_10_3_1 0
x_3_10_3_2 0
x_3_10_3_3 0
x_3_10_3_4 0
x_3_10_3_5 0
x_3_10_4_0 0
x_3_10_4_1 0
x_3_10_4_2 0
x_3_10_4_3 0
x_3_10_4_4 0
x_3_10_4_5 0
x_4_5_0_0 0
x_4_5_0_1 0
x_4_5_0_2 0
x_4_5_0_3 0
x_4_5_0_4 0
x_4_5_0_5 0
x_4_5_1_0 0
x_4_5_1_1 0
x_4_5_1_2 0
x_4_5_1_3 0
x_4_5_1_4 0
x_4_5_1_5 0
x_4_5_2_0 0
x_4_5_2_1 0
x_4_5_2_2 0
x_4_5_2_3 0
x_4_5_2_4 0
x_4_5_2_5 0
x_4_5_3_0 0
x_4_5_3_1 0
x_4_5_3_2 0
x_4_5_3_3 0
x_4_5_3_4 0
x_4_5_3_5 0
x_4_5_4_0 0
x_4_5_4_1 0
x_4_5_4_2 0
x_4_5_4_3 0
x_4_5_4_4 0
x_4_5_4_5 0
x_4_6_0_0 0
x_4_6_0_1 0
x_4_6_0_2 0
x_4_6_0_3 0
x_4_6_0_4 0
x_4_6_0_5 0
x_4_6_1_0 0
x_4_6_1_1 0
x_4_6_1_2 0
x_4_6_1_3 1.7000595540206913e-13
x_4_6_1_4 0
x_4_6_1_5 0
x_4_6_2_0 0
x_4_6_2_1 0
x_4_6_2_2 0
x_4_6_2_3 0
x_4_6_2_4 0
x_4_6_2_5 0
x_4_6_3_0 0
x_4_6_3_1 0
x_4_6_3_2 0
x_4_6_3_3 0
x_4_6_3_4 0
x_4_6_3_5 0
x_4_6_4_0 0
x_4_6_4_1 0
x_4_6_4_2 0
x_4_6_4_3 0
x_4_6_4_4 0
x_4_6_4_5 0
x_4_7_0_0 0
x_4_7_0_1 0
x_4_7_0_2 0
x_4_7_0_3 0
x_4_7_0_4 0
x_4_7_0_5 0
x_4_7_1_0 0
x_4_7_1_1 0
x_4_7_1_2 0
x_4_7_1_3 0
x_4_7_1_4 0
x_4_7_1_5 0
x_4_7_2_0 0
x_4_7_2_1 0
x_4_7_2_2 0
x_4_7_2_3 0
x_4_7_2_4 0
x_4_7_2_5 0
x_4_7_3_0 0
x_4_7_3_1 0
x_4_7_3_2 0
x_4_7_3_3 0
x_4_7_3_4 0
x_4_7_3_5 0
x_4_7_4_0 0
x_4_7_4_1 0
x_4_7_4_2 0
x_4_7_4_3 0
x_4_7_4_4 0
x_4_7_4_5 0
x_4_8_0_0 0
x_4_8_0_1 1
x_4_8_0_2 0
x_4_8_0_3 0
x_4_8_0_4 0
x_4_8_0_5 0
x_4_8_1_0 0
x_4_8_1_1 0
x_4_8_1_2 0
x_4_8_1_3 0
x_4_8_1_4 0
x_4_8_1_5 0
x_4_8_2_0 0
x_4_8_2_1 0
x_4_8_2_2 0
x_4_8_2_3 9.9999999999999978e-01
x_4_8_2_4 0
x_4_8_2_5 0
x_4_8_3_0 0
x_4_8_3_1 0
x_4_8_3_2 0
x_4_8_3_3 0
x_4_8_3_4 0
x_4_8_3_5 0
x_4_8_4_0 0
x_4_8_4_1 0
x_4_8_4_2 0
x_4_8_4_3 0
x_4_8_4_4 0
x_4_8_4_5 0
x_4_9_0_0 0
x_4_9_0_1 0
x_4_9_0_2 0
x_4_9_0_3 0
x_4_9_0_4 0
x_4_9_0_5 0
x_4_9_1_0 0
x_4_9_1_1 0
x_4_9_1_2 0
x_4_9_1_3 0
x_4_9_1_4 0
x_4_9_1_5 0
x_4_9_2_0 0
x_4_9_2_1 0
x_4_9_2_2 0
x_4_9_2_3 0
x_4_9_2_4 0
x_4_9_2_5 0
x_4_9_3_0 0
x_4_9_3_1 0
x_4_9_3_2 0
x_4_9_3_3 0
x_4_9_3_4 0
x_4_9_3_5 0
x_4_9_4_0 0
x_4_9_4_1 0
x_4_9_4_2 0
x_4_9_4_3 0
x_4_9_4_4 0
x_4_9_4_5 0
x_4_10_0_0 0
x_4_10_0_1 0
x_4_10_0_2 0
x_4_10_0_3 0
x_4_10_0_4 0
x_4_10_0_5 0
x_4_10_1_0 0
x_4_10_1_1 0
x_4_10_1_2 0
x_4_10_1_3 0
x_4_10_1_4 0
x_4_10_1_5 0
x_4_10_2_0 0
x_4_10_2_1 0
x_4_10_2_2 0
x_4_10_2_3 0
x_4_10_2_4 0
x_4_10_2_5 0
x_4_10_3_0 0
x_4_10_3_1 0
x_4_10_3_2 0
x_4_10_3_3 0
x_4_10_3_4 0
x_4_10_3_5 0
x_4_10_4_0 0
x_4_10_4_1 0
x_4_10_4_2 0
x_4_10_4_3 0
x_4_10_4_4 0
x_4_10_4_5 0
x_5_6_0_0 0
x_5_6_0_1 0
x_5_6_0_2 0
x_5_6_0_3 0
x_5_6_0_4 0
x_5_6_0_5 0
x_5_6_1_0 0
x_5_6_1_1 0
x_5_6_1_2 0
x_5_6_1_3 0
x_5_6_1_4 0
x_5_6_1_5 0
x_5_6_2_0 0
x_5_6_2_1 0
x_5_6_2_2 0
x_5_6_2_3 0
x_5_6_2_4 0
x_5_6_2_5 0
x_5_6_3_0 0
x_5_6_3_1 0
x_5_6_3_2 0
x_5_6_3_3 0
x_5_6_3_4 0
x_5_6_3_5 0
x_5_6_4_0 0
x_5_6_4_1 0
x_5_6_4_2 0
x_5_6_4_3 0
x_5_6_4_4 0
x_5_6_4_5 0
x_5_7_0_0 0
x_5_7_0_1 0
x_5_7_0_2 0
x_5_7_0_3 0
x_5_7_0_4 0
x_5_7_0_5 0
x_5_7_1_0 0
x_5_7_1_1 0
x_5_7_1_2 0
x_5_7_1_3 -1.7000595540206913e-13
x_5_7_1_4 0
x_5_7_1_5 0
x_5_7_2_0 0
x_5_7_2_1 0
x_5_7_2_2 9.9999999999990730e-01
x_5_7_2_3 0
x_5_7_2_4 0
x_5_7_2_5 0
x_5_7_3_0 0
x_5_7_3_1 0
x_5_7_3_2 0
x_5_7_3_3 0
x_5_7_3_4 0
x_5_7_3_5 0
x_5_7_4_0 0
x_5_7_4_1 0
x_5_7_4_2 0
x_5_7_4_3 0
x_5_7_4_4 0
x_5_7_4_5 0
x_5_8_0_0 0
x_5_8_0_1 0
x_5_8_0_2 0
x_5_8_0_3 0
x_5_8_0_4 0
x_5_8_0_5 0
x_5_8_1_0 0
x_5_8_1_1 0
x_5_8_1_2 0
x_5_8_1_3 0
x_5_8_1_4 0
x_5_8_1_5 0
x_5_8_2_0 0
x_5_8_2_1 0
x_5_8_2_2 0
x_5_8_2_3 0
x_5_8_2_4 0
x_5_8_2_5 0
x_5_8_3_0 0
x_5_8_3_1 0
x_5_8_3_2 0
x_5_8_3_3 0
x_5_8_3_4 0
x_5_8_3_5 0
x_5_8_4_0 0
x_5_8_4_1 0
x_5_8_4_2 0
x_5_8_4_3 0
x_5_8_4_4 0
x_5_8_4_5 0
x_5_9_0_0 0
x_5_9_0_1 0
x_5_9_0_2 0
x_5_9_0_3 0
x_5_9_0_4 0
x_5_9_0_5 0
x_5_9_1_0 0
x_5_9_1_1 0
x_5_9_1_2 0
x_5_9_1_3 0
x_5_9_1_4 0
x_5_9_1_5 0
x_5_9_2_0 0
x_5_9_2_1 0
x_5_9_2_2 0
x_5_9_2_3 0
x_5_9_2_4 0
x_5_9_2_5 0
x_5_9_3_0 0
x_5_9_3_1 0
x_5_9_3_2 0
x_5_9_3_3 0
x_5_9_3_4 0
x_5_9_3_5 0
x_5_9_4_0 0
x_5_9_4_1 0
x_5_9_4_2 0
x_5_9_4_3 0
x_5_9_4_4 0
x_5_9_4_5 0
x_5_10_0_0 0
x_5_10_0_1 0
x_5_10_0_2 0
x_5_10_0_3 0
x_5_10_0_4 0
x_5_10_0_5 0
x_5_10_1_0 0
x_5_10_1_1 0
x_5_10_1_2 0
x_5_10_1_3 0
x_5_10_1_4 0
x_5_10_1_5 0
x_5_10_2_0 0
x_5_10_2_1 0
x_5_10_2_2 0
x_5_10_2_3 0
x_5_10_2_4 0
x_5_10_2_5 0
x_5_10_3_0 0
x_5_10_3_1 0
x_5_10_3_2 0
x_5_10_3_3 0
x_5_10_3_4 0
x_5_10_3_5 0
x_5_10_4_0 0
x_5_10_4_1 0
x_5_10_4_2 0
x_5_10_4_3 0
x_5_10_4_4 0
x_5_10_4_5 0
x_6_7_0_0 0
x_6_7_0_1 0
x_6_7_0_2 0
x_6_7_0_3 0
x_6_7_0_4 0
x_6_7_0_5 0
x_6_7_1_0 0
x_6_7_1_1 0
x_6_7_1_2 0
x_6_7_1_3 0
x_6_7_1_4 0
x_6_7_1_5 0
x_6_7_2_0 0
x_6_7_2_1 0
x_6_7_2_2 0
x_6_7_2_3 0
x_6_7_2_4 0
x_6_7_2_5 0
x_6_7_3_0 0
x_6_7_3_1 0
x_6_7_3_2 0
x_6_7_3_3 0
x_6_7_3_4 0
x_6_7_3_5 0
x_6_7_4_0 0
x_6_7_4_1 0
x_6_7_4_2 0
x_6_7_4_3 0
x_6_7_4_4 0
x_6_7_4_5 0
x_6_8_0_0 0
x_6_8_0_1 0
x_6_8_0_2 0
x_6_8_0_3 0
x_6_8_0_4 0
x_6_8_0_5 0
x_6_8_1_0 0
x_6_8_1_1 0
x_6_8_1_2 0
x_6_8_1_3 0
x_6_8_1_4 0
x_6_8_1_5 0
x_6_8_2_0 0
x_6_8_2_1 0
x_6_8_2_2 0
x_6_8_2_3 0
x_6_8_2_4 0
x_6_8_2_5 0
x_6_8_3_0 0
x_6_8_3_1 0
x_6_8_3_2 0
x_6_8_3_3 0
x_6_8_3_4 0
x_6_8_3_5 0
x_6_8_4_0 0
x_6_8_4_1 0
x_6_8_4_2 0
x_6_8_4_3 0
x_6_8_4_4 0
x_6_8_4_5 0
x_6_9_0_0 0
x_6_9_0_1 0
x_6_9_0_2 0
x_6_9_0_3 0
x_6_9_0_4 0
x_6_9_0_5 0
x_6_9_1_0 0
x_6_9_1_1 0
x_6_9_1_2 0
x_6_9_1_3 0
x_6_9_1_4 0
x_6_9_1_5 0
x_6_9_2_0 0
x_6_9_2_1 0
x_6_9_2_2 0
x_6_9_2_3 0
x_6_9_2_4 0
x_6_9_2_5 0
x_6_9_3_0 0
x_6_9_3_1 0
x_6_9_3_2 0
x_6_9_3_3 0
x_6_9_3_4 0
x_6_9_3_5 0
x_6_9_4_0 0
x_6_9_4_1 0
x_6_9_4_2 0
x_6_9_4_3 0
x_6_9_4_4 0
x_6_9_4_5 0
x_6_10_0_0 0
x_6_10_0_1 0
x_6_10_0_2 0
x_6_10_0_3 0
x_6_10_0_4 0
x_6_10_0_5 0
x_6_10_1_0 0
x_6_10_1_1 0
x_6_10_1_2 0
x_6_10_1_3 0
x_6_10_1_4 0
x_6_10_1_5 0
x_6_10_2_0 0
x_6_10_2_1 0
x_6_10_2_2 0
x_6_10_2_3 0
x_6_10_2_4 0
x_6_10_2_5 0
x_6_10_3_0 0
x_6_10_3_1 0
x_6_10_3_2 0
x_6_10_3_3 0
x_6_10_3_4 0
x_6_10_3_5 0
x_6_10_4_0 0
x_6_10_4_1 0
x_6_10_4_2 0
x_6_10_4_3 0
x_6_10_4_4 0
x_6_10_4_5 0
x_7_8_0_0 0
x_7_8_0_1 1.3611334281904419e-13
x_7_8_0_2 0
x_7_8_0_3 0
x_7_8_0_4 0
x_7_8_0_5 0
x_7_8_1_0 0
x_7_8_1_1 0
x_7_8_1_2 0
x_7_8_1_3 0
x_7_8_1_4 0
x_7_8_1_5 0
x_7_8_2_0 0
x_7_8_2_1 0
x_7_8_2_2 0
x_7_8_2_3 0
x_7_8_2_4 0
x_7_8_2_5 0
x_7_8_3_0 0
x_7_8_3_1 0
x_7_8_3_2 0
x_7_8_3_3 0
x_7_8_3_4 0
x_7_8_3_5 0
x_7_8_4_0 0
x_7_8_4_1 0
x_7_8_4_2 0
x_7_8_4_3 0
x_7_8_4_4 0
x_7_8_4_5 0
x_7_9_0_0 0
x_7_9_0_1 0
x_7_9_0_2 0
x_7_9_0_3 0
x_7_9_0_4 0
x_7_9_0_5 0
x_7_9_1_0 0
x_7_9_1_1 0
x_7_9_1_2 0
x_7_9_1_3 0
x_7_9_1_4 0
x_7_9_1_5 0
x_7_9_2_0 0
x_7_9_2_1 0
x_7_9_2_2 0
x_7_9_2_3 0
x_7_9_2_4 0
x_7_9_2_5 0
x_7_9_3_0 0
x_7_9_3_1 0
x_7_9_3_2 0
x_7_9_3_3 0
x_7_9_3_4 0
x_7_9_3_5 0
x_7_9_4_0 0
x_7_9_4_1 0
x_7_9_4_2 0
x_7_9_4_3 0
x_7_9_4_4 0
x_7_9_4_5 0
x_7_10_0_0 0
x_7_10_0_1 0
x_7_10_0_2 0
x_7_10_0_3 0
x_7_10_0_4 0
x_7_10_0_5 0
x_7_10_1_0 0
x_7_10_1_1 0
x_7_10_1_2 0
x_7_10_1_3 0
x_7_10_1_4 0
x_7_10_1_5 0
x_7_10_2_0 0
x_7_10_2_1 0
x_7_10_2_2 0
x_7_10_2_3 0
x_7_10_2_4 0
x_7_10_2_5 0
x_7_10_3_0 0
x_7_10_3_1 0
x_7_10_3_2 0
x_7_10_3_3 0
x_7_10_3_4 0
x_7_10_3_5 0
x_7_10_4_0 0
x_7_10_4_1 0
x_7_10_4_2 0
x_7_10_4_3 0
x_7_10_4_4 0
x_7_10_4_5 0
x_8_9_0_0 0
x_8_9_0_1 0
x_8_9_0_2 0
x_8_9_0_3 0
x_8_9_0_4 0
x_8_9_0_5 0
x_8_9_1_0 0
x_8_9_1_1 0
x_8_9_1_2 0
x_8_9_1_3 0
x_8_9_1_4 0
x_8_9_1_5 0
x_8_9_2_0 0
x_8_9_2_1 0
x_8_9_2_2 0
x_8_9_2_3 0
x_8_9_2_4 0
x_8_9_2_5 0
x_8_9_3_0 0
x_8_9_3_1 0
x_8_9_3_2 0
x_8_9_3_3 0
x_8_9_3_4 0
x_8_9_3_5 0
x_8_9_4_0 0
x_8_9_4_1 0
x_8_9_4_2 0
x_8_9_4_3 0
x_8_9_4_4 0
x_8_9_4_5 0
x_8_10_0_0 0
x_8_10_0_1 0
x_8_10_0_2 0
x_8_10_0_3 0
x_8_10_0_4 0
x_8_10_0_5 0
x_8_10_1_0 0
x_8_10_1_1 0
x_8_10_1_2 0
x_8_10_1_3 0
x_8_10_1_4 0
x_8_10_1_5 0
x_8_10_2_0 0
x_8_10_2_1 0
x_8_10_2_2 0
x_8_10_2_3 0
x_8_10_2_4 0
x_8_10_2_5 0
x_8_10_3_0 0
x_8_10_3_1 0
x_8_10_3_2 1
x_8_10_3_3 0
x_8_10_3_4 0
x_8_10_3_5 0
x_8_10_4_0 0
x_8_10_4_1 0
x_8_10_4_2 0
x_8_10_4_3 0
x_8_10_4_4 0
x_8_10_4_5 0
x_9_10_0_0 0
x_9_10_0_1 0
x_9_10_0_2 0
x_9_10_0_3 0
x_9_10_0_4 0
x_9_10_0_5 0
x_9_10_1_0 0
x_9_10_1_1 0
x_9_10_1_2 0
x_9_10_1_3 0
x_9_10_1_4 0
x_9_10_1_5 0
x_9_10_2_0 0
x_9_10_2_1 0
x_9_10_2_2 0
x_9_10_2_3 0
x_9_10_2_4 0
x_9_10_2_5 0
x_9_10_3_0 0
x_9_10_3_1 0
x_9_10_3_2 0
x_9_10_3_3 0
x_9_10_3_4 0
x_9_10_3_5 0
x_9_10_4_0 0
x_9_10_4_1 0
x_9_10_4_2 0
x_9_10_4_3 0
x_9_10_4_4 0
x_9_10_4_5 0
